c Random Network
p max    10      20
n         1  s
n        10  t
a       2       3      35
a       9       8      27
a       3       2      20
a       8       3      36
a       5       2      46
a       5       8      31
a       9       2      49
a       3      10      41
a       4       2      12
a       5       1      22
a       2      10      39
a       2       9      45
a       3       8      17
a       1       2      16
a       1       6      14
a       7       2      37
a       7       1      40
a       1       5      31
a       4       6      32
a       3       4      15
